w = 30;
n = 28;
cx = [5, 5, 8, 8, 13, 11, 11, 5, 5, 3, 3, 11, 11, 4, 4, 7, 5, 5, 3, 3, 4, 4, 2, 2, 5, 5, 3, 3];
cy = [7, 14, 14, 4, 21, 7, 14, 14, 4, 18, 21, 17, 4, 7, 5, 6, 18, 3, 7, 5, 18, 3, 12, 6, 18, 21, 17, 4];
